n=150;
k_min=3;
k_max=3;
M=[| 346, 500, 153
 | 363, 477, 159
 | 355, 491, 153
 | 362, 490, 147
 | 348, 491, 160
 | 339, 500, 160
 | 357, 485, 156
 | 355, 488, 156
 | 365, 477, 156
 | 363, 477, 159
 | 346, 478, 174
 | 355, 500, 144
 | 361, 481, 157
 | 358, 473, 168
 | 340, 461, 197
 | 337, 463, 198
 | 341, 475, 182
 | 349, 493, 157
 | 347, 477, 174
 | 345, 490, 163
 | 358, 470, 170
 | 350, 484, 165
 | 350, 469, 180
 | 368, 469, 161
 | 368, 479, 152
 | 369, 470, 159
 | 361, 480, 157
 | 350, 490, 159
 | 350, 490, 159
 | 364, 485, 150
 | 366, 480, 152
 | 355, 474, 169
 | 340, 479, 180
 | 337, 471, 190
 | 363, 477, 159
 | 355, 477, 167
 | 347, 474, 178
 | 363, 477, 159
 | 361, 481, 156
 | 353, 490, 155
 | 349, 489, 161
 | 375, 447, 176
 | 357, 486, 156
 | 363, 469, 166
 | 357, 475, 167
 | 364, 480, 155
 | 343, 500, 156
 | 355, 500, 144
 | 346, 484, 169
 | 355, 485, 158
 | 500, 140, 359
 | 455, 200, 344
 | 500, 119, 380
 | 452, 263, 283
 | 460, 182, 356
 | 500, 202, 297
 | 455, 187, 357
 | 500, 315, 184
 | 453, 191, 354
 | 455, 278, 266
 | 464, 307, 228
 | 469, 230, 300
 | 455, 256, 288
 | 500, 167, 332
 | 460, 293, 246
 | 459, 198, 342
 | 481, 213, 305
 | 500, 236, 263
 | 500, 176, 323
 | 468, 266, 264
 | 453, 192, 353
 | 459, 247, 292
 | 456, 173, 370
 | 479, 188, 332
 | 455, 219, 325
 | 451, 205, 343
 | 467, 157, 375
 | 469, 131, 399
 | 500, 184, 315
 | 500, 282, 217
 | 464, 276, 258
 | 470, 283, 246
 | 474, 258, 267
 | 457, 169, 373
 | 500, 210, 289
 | 454, 216, 329
 | 472, 161, 365
 | 476, 200, 322
 | 500, 238, 261
 | 459, 262, 277
 | 472, 233, 293
 | 486, 185, 328
 | 477, 248, 273
 | 488, 315, 196
 | 472, 241, 286
 | 483, 238, 277
 | 483, 234, 281
 | 467, 218, 313
 | 467, 340, 191
 | 479, 242, 277
 | 435, 135, 429
 | 477, 159, 363
 | 453, 46, 500
 | 465, 114, 419
 | 462, 91, 446
 | 403, 96, 500
 | 446, 251, 302
 | 426, 112, 461
 | 448, 110, 441
 | 426, 127, 445
 | 450, 141, 407
 | 500, 95, 404
 | 500, 50, 449
 | 500, 153, 346
 | 458, 168, 373
 | 453, 130, 416
 | 464, 106, 428
 | 397, 151, 450
 | 397, 135, 467
 | 456, 183, 359
 | 467, 69, 463
 | 471, 182, 345
 | 400, 116, 482
 | 461, 159, 378
 | 465, 83, 450
 | 439, 92, 467
 | 460, 170, 368
 | 458, 170, 370
 | 466, 102, 430
 | 440, 103, 456
 | 431, 103, 464
 | 398, 155, 445
 | 462, 106, 431
 | 458, 157, 384
 | 447, 158, 394
 | 421, 117, 461
 | 442, 137, 420
 | 458, 118, 422
 | 461, 180, 358
 | 483, 70, 446
 | 468, 84, 446
 | 457, 118, 423
 | 477, 159, 363
 | 457, 78, 464
 | 454, 102, 443
 | 465, 109, 424
 | 467, 149, 383
 | 467, 118, 413
 | 438, 152, 408
 | 450, 175, 374 |];
 P=[2, 2, 2, 2, 2, 2, 2, 2, 2, 2, 2, 2, 2, 2, 2, 2, 2, 2, 2, 2, 2, 2, 2, 2, 2, 2, 2, 2, 2, 2, 2, 2, 2, 2, 2, 2, 2, 2, 2, 2, 2, 2, 2, 2, 2, 2, 2, 2, 2, 2, 1, 1, 1, 1, 1, 1, 1, 1, 1, 1, 1, 1, 1, 1, 1, 1, 1, 1, 1, 1, 1, 1, 1, 1, 1, 1, 1, 1, 1, 1, 1, 1, 1, 1, 1, 1, 1, 1, 1, 1, 1, 1, 1, 1, 1, 1, 1, 1, 1, 1, 1, 1, 3, 1, 1, 3, 1, 3, 1, 3, 1, 1, 1, 1, 1, 1, 1, 3, 3, 1, 1, 1, 3, 1, 1, 3, 1, 1, 1, 3, 3, 3, 1, 1, 1, 3, 1, 1, 1, 1, 1, 1, 1, 1, 1, 1, 1, 1, 1, 1 ];